p cnf 309 452
cr 33 34 35 36 37 38 39 40 41 42 43 44 45 46 47 48 33 34 35 36 37 38 39 40 41 42 43 44 45 46 47 48
c ind 33 34 35 36 37 38 39 40 41 42 0
c ind 43 44 45 46 47 48 33 34 35 36 0
c ind 37 38 39 40 41 42 43 44 45 46 0
c ind 47 48 0
-1 -17 -33 0
1 17 -33 0
1 -17 33 0
-1 17 33 0
-2 -18 -34 0
2 18 -34 0
2 -18 34 0
-2 18 34 0
-3 -19 -35 0
3 19 -35 0
3 -19 35 0
-3 19 35 0
-4 -20 -36 0
4 20 -36 0
4 -20 36 0
-4 20 36 0
-5 -21 -37 0
5 21 -37 0
5 -21 37 0
-5 21 37 0
-6 -22 -38 0
6 22 -38 0
6 -22 38 0
-6 22 38 0
-7 -23 -39 0
7 23 -39 0
7 -23 39 0
-7 23 39 0
-8 -24 -40 0
8 24 -40 0
8 -24 40 0
-8 24 40 0
-9 -25 -41 0
9 25 -41 0
9 -25 41 0
-9 25 41 0
-10 -26 -42 0
10 26 -42 0
10 -26 42 0
-10 26 42 0
-11 -27 -43 0
11 27 -43 0
11 -27 43 0
-11 27 43 0
-12 -28 -44 0
12 28 -44 0
12 -28 44 0
-12 28 44 0
-13 -29 -45 0
13 29 -45 0
13 -29 45 0
-13 29 45 0
-14 -30 -46 0
14 30 -46 0
14 -30 46 0
-14 30 46 0
-15 -31 -47 0
15 31 -47 0
15 -31 47 0
-15 31 47 0
-16 -32 -48 0
16 32 -48 0
16 -32 48 0
-16 32 48 0
-49 -81 0
49 -81 0
-50 -82 0
50 -82 0
-51 -83 0
51 -83 0
-52 -84 0
52 -84 0
-53 -85 0
53 -85 0
-54 -86 0
54 -86 0
-55 -87 0
55 -87 0
-56 -88 0
56 -88 0
-57 -89 0
57 -89 0
-58 -90 0
58 -90 0
-59 -91 0
59 -91 0
-60 -92 0
60 -92 0
-61 -93 0
61 -93 0
-62 -94 0
62 -94 0
-63 -95 0
63 -95 0
-64 -96 0
64 -96 0
-65 -97 0
65 -97 0
-66 -98 0
66 -98 0
-67 -99 0
67 -99 0
-68 -100 0
68 -100 0
-69 -101 0
69 -101 0
-70 -102 0
70 -102 0
-71 -103 0
71 -103 0
-72 -104 0
72 -104 0
-73 -105 0
73 -105 0
-74 -106 0
74 -106 0
-75 -107 0
75 -107 0
-76 -108 0
76 -108 0
-77 -109 0
77 -109 0
-78 -110 0
78 -110 0
-79 -111 0
79 -111 0
-80 -112 0
80 -112 0
-81 -113 0
-82 -113 0
-83 -113 0
-84 -113 0
-85 -113 0
-86 -113 0
-87 -113 0
-88 -113 0
-89 -113 0
-90 -113 0
-91 -113 0
-92 -113 0
-93 -113 0
-94 -113 0
-95 -113 0
-96 -113 0
-97 -113 0
-98 -113 0
-99 -113 0
-100 -113 0
-101 -113 0
-102 -113 0
-103 -113 0
-104 -113 0
-105 -113 0
-106 -113 0
-107 -113 0
-108 -113 0
-109 -113 0
-110 -113 0
-111 -113 0
-112 -113 0
81 82 83 84 85 86 87 88 89 90 91 92 93 94 95 96 97 98 99 100 101 102 103 104 105 106 107 108 109 110 111 112 113 0
-114 -146 0
114 -146 0
-115 -147 0
115 -147 0
-116 -148 0
116 -148 0
-117 -149 0
117 -149 0
-118 -150 0
118 -150 0
-119 -151 0
119 -151 0
-120 -152 0
120 -152 0
-121 -153 0
121 -153 0
-122 -154 0
122 -154 0
-123 -155 0
123 -155 0
-124 -156 0
124 -156 0
-125 -157 0
125 -157 0
-126 -158 0
126 -158 0
-127 -159 0
127 -159 0
-128 -160 0
128 -160 0
-129 -161 0
129 -161 0
-130 -162 0
130 -162 0
-131 -163 0
131 -163 0
-132 -164 0
132 -164 0
-133 -165 0
133 -165 0
-134 -166 0
134 -166 0
-135 -167 0
135 -167 0
-136 -168 0
136 -168 0
-137 -169 0
137 -169 0
-138 -170 0
138 -170 0
-139 -171 0
139 -171 0
-140 -172 0
140 -172 0
-141 -173 0
141 -173 0
-142 -174 0
142 -174 0
-143 -175 0
143 -175 0
-144 -176 0
144 -176 0
-145 -177 0
145 -177 0
-146 -178 0
-147 -178 0
-148 -178 0
-149 -178 0
-150 -178 0
-151 -178 0
-152 -178 0
-153 -178 0
-154 -178 0
-155 -178 0
-156 -178 0
-157 -178 0
-158 -178 0
-159 -178 0
-160 -178 0
-161 -178 0
-162 -178 0
-163 -178 0
-164 -178 0
-165 -178 0
-166 -178 0
-167 -178 0
-168 -178 0
-169 -178 0
-170 -178 0
-171 -178 0
-172 -178 0
-173 -178 0
-174 -178 0
-175 -178 0
-176 -178 0
-177 -178 0
146 147 148 149 150 151 152 153 154 155 156 157 158 159 160 161 162 163 164 165 166 167 168 169 170 171 172 173 174 175 176 177 178 0
-179 -211 0
179 -211 0
-180 -212 0
180 -212 0
-181 -213 0
181 -213 0
-182 -214 0
182 -214 0
-183 -215 0
183 -215 0
-184 -216 0
184 -216 0
-185 -217 0
185 -217 0
-186 -218 0
186 -218 0
-187 -219 0
187 -219 0
-188 -220 0
188 -220 0
-189 -221 0
189 -221 0
-190 -222 0
190 -222 0
-191 -223 0
191 -223 0
-192 -224 0
192 -224 0
-193 -225 0
193 -225 0
-194 -226 0
194 -226 0
-195 -227 0
195 -227 0
-196 -228 0
196 -228 0
-197 -229 0
197 -229 0
-198 -230 0
198 -230 0
-199 -231 0
199 -231 0
-200 -232 0
200 -232 0
-201 -233 0
201 -233 0
-202 -234 0
202 -234 0
-203 -235 0
203 -235 0
-204 -236 0
204 -236 0
-205 -237 0
205 -237 0
-206 -238 0
206 -238 0
-207 -239 0
207 -239 0
-208 -240 0
208 -240 0
-209 -241 0
209 -241 0
-210 -242 0
210 -242 0
-211 -243 0
-212 -243 0
-213 -243 0
-214 -243 0
-215 -243 0
-216 -243 0
-217 -243 0
-218 -243 0
-219 -243 0
-220 -243 0
-221 -243 0
-222 -243 0
-223 -243 0
-224 -243 0
-225 -243 0
-226 -243 0
-227 -243 0
-228 -243 0
-229 -243 0
-230 -243 0
-231 -243 0
-232 -243 0
-233 -243 0
-234 -243 0
-235 -243 0
-236 -243 0
-237 -243 0
-238 -243 0
-239 -243 0
-240 -243 0
-241 -243 0
-242 -243 0
211 212 213 214 215 216 217 218 219 220 221 222 223 224 225 226 227 228 229 230 231 232 233 234 235 236 237 238 239 240 241 242 243 0
-244 -276 0
244 -276 0
-245 -277 0
245 -277 0
-246 -278 0
246 -278 0
-247 -279 0
247 -279 0
-248 -280 0
248 -280 0
-249 -281 0
249 -281 0
-250 -282 0
250 -282 0
-251 -283 0
251 -283 0
-252 -284 0
252 -284 0
-253 -285 0
253 -285 0
-254 -286 0
254 -286 0
-255 -287 0
255 -287 0
-256 -288 0
256 -288 0
-257 -289 0
257 -289 0
-258 -290 0
258 -290 0
-259 -291 0
259 -291 0
-260 -292 0
260 -292 0
-261 -293 0
261 -293 0
-262 -294 0
262 -294 0
-263 -295 0
263 -295 0
-264 -296 0
264 -296 0
-265 -297 0
265 -297 0
-266 -298 0
266 -298 0
-267 -299 0
267 -299 0
-268 -300 0
268 -300 0
-269 -301 0
269 -301 0
-270 -302 0
270 -302 0
-271 -303 0
271 -303 0
-272 -304 0
272 -304 0
-273 -305 0
273 -305 0
-274 -306 0
274 -306 0
-275 -307 0
275 -307 0
-276 -308 0
-277 -308 0
-278 -308 0
-279 -308 0
-280 -308 0
-281 -308 0
-282 -308 0
-283 -308 0
-284 -308 0
-285 -308 0
-286 -308 0
-287 -308 0
-288 -308 0
-289 -308 0
-290 -308 0
-291 -308 0
-292 -308 0
-293 -308 0
-294 -308 0
-295 -308 0
-296 -308 0
-297 -308 0
-298 -308 0
-299 -308 0
-300 -308 0
-301 -308 0
-302 -308 0
-303 -308 0
-304 -308 0
-305 -308 0
-306 -308 0
-307 -308 0
276 277 278 279 280 281 282 283 284 285 286 287 288 289 290 291 292 293 294 295 296 297 298 299 300 301 302 303 304 305 306 307 308 0
c FALSE c::__CPROVER_malloc_is_new_array#1
c c::main::1::o!0@1#1 244 245 246 247 248 249 250 251 252 253 254 255 256 257 258 259 260 261 262 263 264 265 266 267 268 269 270 271 272 273 274 275
c c::main::1::o!0@1#2 33 34 35 36 37 38 39 40 41 42 43 44 45 46 47 48 33 34 35 36 37 38 39 40 41 42 43 44 45 46 47 48
c c::main::$tmp::return_value_nondet_uint$1!0@1#1 49 50 51 52 53 54 55 56 57 58 59 60 61 62 63 64 65 66 67 68 69 70 71 72 73 74 75 76 77 78 79 80
c symex::nondet0 1 2 3 4 5 6 7 8 9 10 11 12 13 14 15 16 17 18 19 20 21 22 23 24 25 26 27 28 29 30 31 32
c c::main::$tmp::return_value_nondet_uint$1!0@1#2 1 2 3 4 5 6 7 8 9 10 11 12 13 14 15 16 17 18 19 20 21 22 23 24 25 26 27 28 29 30 31 32
c c::main::1::x!0@1#1 114 115 116 117 118 119 120 121 122 123 124 125 126 127 128 129 130 131 132 133 134 135 136 137 138 139 140 141 142 143 144 145
c c::main::1::x!0@1#2 1 2 3 4 5 6 7 8 9 10 11 12 13 14 15 16 17 18 19 20 21 22 23 24 25 26 27 28 29 30 31 32
c c::main::1::y!0@1#1 179 180 181 182 183 184 185 186 187 188 189 190 191 192 193 194 195 196 197 198 199 200 201 202 203 204 205 206 207 208 209 210
c c::main::1::y!0@1#2 33 34 35 36 37 38 39 40 41 42 43 44 45 46 47 48 FALSE FALSE FALSE FALSE FALSE FALSE FALSE FALSE FALSE FALSE FALSE FALSE FALSE FALSE FALSE FALSE
